c WARNING: for repeatability, setting FPU to use double precision
d VARIABLES            75036        
d CONSTRAINTS          300581       
c ============================[ Problem Statistics ]=============================
c |                                                                             |
c |  Number of variables:         75036                                         |
c |  Number of clauses:          300581                                         |
c |  Parse time:                   0.04 s                                       |
c |                                                                             |
c ============================[ Search Statistics ]==============================
c | Conflicts |          ORIGINAL         |          LEARNT          | Progress |
c |           |    Vars  Clauses Literals |    Limit  Clauses Lit/Cl |          |
c ===============================================================================
c |       100 |   54969   248559   607987 |    91138      100     19 | 26.743 % |
c |       250 |   54969   248559   607987 |   100252      250     45 | 26.743 % |
c |       475 |   54969   248559   607987 |   110277      475     98 | 26.743 % |
c |       812 |   54969   248559   607987 |   121305      812    124 | 26.743 % |
c |      1318 |   54969   248559   607987 |   133435     1318    123 | 26.743 % |
c |      2077 |   54969   248559   607987 |   146779     2077    120 | 26.743 % |
c |      3216 |   54969   248559   607987 |   161457     3216    127 | 26.743 % |
c |      4924 |   54969   248559   607987 |   177602     4924    132 | 26.743 % |
c |      7486 |   54969   248559   607987 |   195363     7486    159 | 26.743 % |
c |     11330 |   54969   248559   607987 |   214899    11330    160 | 26.743 % |
c |     17096 |   54969   248559   607987 |   236389    17096    168 | 26.743 % |
c |     25745 |   54969   248559   607987 |   260028    25745    185 | 26.743 % |
c |     38719 |   54969   248559   607987 |   286031    38719    181 | 26.743 % |
c |     58180 |   54969   248559   607987 |   314634    58180    172 | 26.743 % |
c |     87372 |   54969   248559   607987 |   346097    87372    175 | 26.743 % |
c |    131161 |   54969   248559   607987 |   380707   131161    192 | 26.743 % |
c |    196845 |   54969   248559   607987 |   418778   196845    188 | 26.743 % |
c |    295371 |   54969   248559   607987 |   460655   295371    186 | 26.743 % |
c |    443160 |   54969   248559   607987 |   506721   443160    180 | 26.743 % |
c |    664843 |   54969   248559   607987 |   557393   166724    145 | 26.743 % |
c |    997368 |   54969   248559   607987 |   613132   499249    158 | 26.743 % |
c |   1496156 |   54969   248559   607987 |   674446   390336    144 | 26.743 % |
c |   2244338 |   54969   248559   607987 |   741890   473934    139 | 26.743 % |
c ===============================================================================
c restarts              : 5884
c conflicts             : 3301110        (1841 /sec)
c decisions             : 6665551        (0.00 % random) (3717 /sec)
c propagations          : 3898574190     (2174059 /sec)
c conflict literals     : 500037503      (41.57 % deleted)
d RESTARTS             5884
d FAILURES             3301110      
d NODES                6665551      
d BACKTRACKS           6665551      
d PROPAGATIONS         3898574190   
d NOGOODSIZE           151.48 
d MEMORY               714.00 
d TIME                 1793.22 

s UNKNOWN
